* ENCODING=ISO-8859-1
NAME          CPLEX
ROWS
 N  obj1    
 G  c1      
 G  c2      
 G  c3      
 G  c4      
 G  c5      
 G  c6      
 G  c7      
 G  c8      
 G  c9      
 G  c10     
 G  c11     
 G  c12     
 G  c13     
 G  c14     
 G  c15     
 G  c16     
 G  c17     
 G  c18     
 G  c19     
 G  c20     
 G  c21     
 G  c22     
 G  c23     
 G  c24     
 G  c25     
 G  c26     
 G  c27     
 G  c28     
 G  c29     
 G  c30     
 G  c31     
 G  c32     
 G  c33     
 G  c34     
 G  c35     
 G  c36     
 G  c37     
 G  c38     
 G  c39     
 G  c40     
 G  c41     
 G  c42     
 G  c43     
 G  c44     
 G  c45     
 G  c46     
 G  c47     
 G  c48     
 G  c49     
 G  c50     
COLUMNS
    MARK0000  'MARKER'                 'INTORG'
    x1        obj1                            1
    x1        c9                            821
    x1        c14                           977
    x1        c42                           956
    x1        c43                           318
    x2        obj1                            1
    x2        c2                            802
    x2        c3                            509
    x2        c6                            207
    x2        c26                           633
    x3        obj1                            1
    x3        c24                           477
    x3        c25                           166
    x3        c36                           911
    x3        c40                           665
    x3        c46                           359
    x4        obj1                            1
    x4        c12                           408
    x4        c13                           379
    x4        c36                           785
    x4        c39                           627
    x4        c47                           846
    x5        obj1                            1
    x5        c8                            531
    x5        c10                           110
    x5        c26                           415
    x5        c35                           976
    x5        c47                           249
    x6        obj1                            1
    x6        c1                            434
    x6        c32                           405
    x6        c34                           611
    x6        c48                           990
    x7        obj1                            1
    x7        c24                           496
    x8        obj1                            1
    x8        c31                           687
    x8        c36                           525
    x8        c44                           153
    x8        c50                           825
    x9        obj1                            1
    x9        c5                            352
    x9        c6                            646
    x9        c16                           915
    x9        c19                           595
    x9        c27                           811
    x9        c33                           366
    x9        c36                           176
    x9        c37                           436
    x10       obj1                            1
    x10       c6                            776
    x10       c8                            779
    x10       c19                           955
    x10       c20                           989
    x10       c23                           418
    x10       c24                           411
    x10       c25                           134
    x10       c36                           296
    x10       c44                           393
    x10       c48                           680
    x10       c49                           818
    x11       obj1                            1
    x11       c6                            784
    x11       c25                           890
    x11       c44                           639
    x11       c45                           138
    x11       c50                           584
    x12       obj1                            1
    x12       c7                            228
    x12       c10                           305
    x12       c17                           354
    x12       c28                           934
    x12       c40                           784
    x13       obj1                            1
    x13       c9                            720
    x13       c10                           565
    x13       c11                           759
    x13       c33                           750
    x14       obj1                            1
    x14       c4                            591
    x14       c5                            143
    x15       obj1                            1
    x15       c6                            664
    x15       c40                           368
    x15       c45                           667
    x16       obj1                            1
    x16       c6                            708
    x16       c8                            647
    x16       c17                           601
    x16       c28                           892
    x16       c41                           587
    x16       c48                           111
    x17       obj1                            1
    x17       c26                           732
    x17       c30                           878
    x17       c35                           624
    x17       c40                           197
    x17       c41                           465
    x17       c44                           538
    x17       c46                           755
    x17       c50                           227
    x18       obj1                            1
    x18       c16                           470
    x18       c30                           519
    x18       c36                           683
    x18       c40                           379
    x18       c50                           330
    x19       obj1                            1
    x19       c7                            632
    x19       c11                           500
    x19       c13                           158
    x19       c24                           244
    x19       c29                           298
    x19       c30                           277
    x19       c33                           682
    x19       c41                           703
    x19       c42                           116
    x20       obj1                            1
    x20       c11                           167
    x20       c30                           208
    x21       obj1                            1
    x21       c12                           494
    x21       c14                           650
    x21       c21                           430
    x21       c29                           616
    x21       c30                           385
    x21       c49                           279
    x22       obj1                            1
    x22       c13                           250
    x22       c20                           104
    x22       c23                           986
    x22       c46                           336
    x23       obj1                            1
    x23       c1                            890
    x23       c9                            921
    x23       c11                           116
    x23       c15                           380
    x23       c28                           653
    x24       obj1                            1
    x24       c3                            837
    x24       c5                            156
    x24       c18                           272
    x24       c23                           956
    x24       c38                           756
    x24       c41                           967
    x24       c44                           932
    x24       c45                           310
    x25       obj1                            1
    x25       c4                            862
    x25       c14                           349
    x25       c30                           853
    x26       obj1                            1
    x26       c2                            312
    x26       c8                            301
    x26       c22                           319
    x26       c31                           314
    x26       c35                           575
    x27       obj1                            1
    x27       c16                           885
    x27       c26                           993
    x27       c41                           400
    x27       c43                           246
    x28       obj1                            1
    x28       c5                            138
    x28       c12                           731
    x28       c20                           118
    x28       c22                           381
    x28       c26                           796
    x28       c45                           345
    x29       obj1                            1
    x29       c1                            896
    x29       c13                           564
    x29       c25                           337
    x29       c35                           205
    x29       c42                           378
    x29       c49                           647
    x30       obj1                            1
    x30       c24                           555
    x30       c43                           535
    x30       c44                           867
    x30       c49                           745
    x31       obj1                            1
    x31       c5                            542
    x31       c27                           644
    x31       c29                           674
    x31       c41                           515
    x31       c45                           839
    x32       obj1                            1
    x32       c2                            882
    x32       c28                           594
    x32       c38                           297
    x32       c42                           558
    x32       c44                           617
    x33       obj1                            1
    x33       c8                            239
    x33       c9                            718
    x33       c15                           953
    x33       c22                           402
    x33       c34                           501
    x33       c42                           154
    x34       obj1                            1
    x34       c4                            637
    x34       c28                           569
    x34       c37                           400
    x34       c39                           870
    x34       c47                           412
    x35       obj1                            1
    x35       c5                            251
    x35       c8                            888
    x35       c11                           346
    x35       c37                           484
    x36       obj1                            1
    x36       c7                            296
    x36       c8                            183
    x36       c15                           549
    x36       c29                           459
    x36       c34                           546
    x36       c41                           972
    x36       c49                           813
    x37       obj1                            1
    x37       c4                            352
    x37       c37                           829
    x38       obj1                            1
    x38       c1                            816
    x38       c6                            262
    x38       c17                           496
    x38       c21                           536
    x38       c22                           883
    x39       obj1                            1
    x39       c12                           636
    x39       c16                           366
    x39       c35                           118
    x39       c37                           329
    x40       obj1                            1
    x40       c10                           160
    x40       c22                           223
    x40       c25                           935
    x40       c31                           107
    x40       c35                           732
    x41       obj1                            1
    x41       c21                           351
    x41       c26                           706
    x41       c48                           625
    x42       obj1                            1
    x42       c23                           807
    x42       c36                           579
    x42       c40                           241
    x42       c47                           967
    x42       c48                           302
    x42       c50                           150
    x43       obj1                            1
    x43       c15                           549
    x43       c19                           979
    x43       c25                           383
    x43       c39                           212
    x43       c48                           316
    x43       c50                           140
    x44       obj1                            1
    x44       c13                           567
    x44       c38                           493
    x44       c45                           813
    x45       obj1                            1
    x45       c7                            478
    x45       c27                           554
    x45       c32                           957
    x45       c33                           261
    x46       obj1                            1
    x46       c7                            585
    x46       c9                            595
    x47       obj1                            1
    x47       c7                            831
    x47       c14                           454
    x47       c15                           340
    x47       c17                           359
    x47       c23                           415
    x47       c34                           942
    x47       c45                           835
    x47       c49                           509
    x47       c50                           641
    x48       obj1                            1
    x48       c27                           142
    x49       obj1                            1
    x49       c3                            719
    x49       c10                           706
    x49       c11                           433
    x49       c18                           773
    x49       c28                           375
    x49       c30                           146
    x49       c40                           528
    x49       c43                           259
    x49       c47                           340
    x50       obj1                            1
    x50       c9                            954
    x50       c18                           880
    x50       c26                           442
    x50       c32                           426
    x50       c47                           420
    x50       c49                           840
    MARK0001  'MARKER'                 'INTEND'
RHS
    rhs       c1                           1518
    rhs       c2                            998
    rhs       c3                           1033
    rhs       c4                           1221
    rhs       c5                            791
    rhs       c6                           2024
    rhs       c7                           1525
    rhs       c8                           1784
    rhs       c9                           2365
    rhs       c10                           923
    rhs       c11                          1161
    rhs       c12                          1135
    rhs       c13                           959
    rhs       c14                          1215
    rhs       c15                          1386
    rhs       c16                          1318
    rhs       c17                           905
    rhs       c18                           963
    rhs       c19                          1265
    rhs       c20                           606
    rhs       c21                           659
    rhs       c22                          1104
    rhs       c23                          1791
    rhs       c24                          1092
    rhs       c25                          1423
    rhs       c26                          2359
    rhs       c27                          1076
    rhs       c28                          2009
    rhs       c29                          1024
    rhs       c30                          1633
    rhs       c31                           554
    rhs       c32                           894
    rhs       c33                          1030
    rhs       c34                          1300
    rhs       c35                          1615
    rhs       c36                          1978
    rhs       c37                          1239
    rhs       c38                           773
    rhs       c39                           855
    rhs       c40                          1581
    rhs       c41                          2305
    rhs       c42                          1081
    rhs       c43                           679
    rhs       c44                          2070
    rhs       c45                          1974
    rhs       c46                           725
    rhs       c47                          1617
    rhs       c48                          1512
    rhs       c49                          2326
    rhs       c50                          1449
BOUNDS
 LI bnd       x1        0
 LI bnd       x2        0
 LI bnd       x3        0
 LI bnd       x4        0
 LI bnd       x5        0
 LI bnd       x6        0
 LI bnd       x7        0
 LI bnd       x8        0
 LI bnd       x9        0
 LI bnd       x10       0
 LI bnd       x11       0
 LI bnd       x12       0
 LI bnd       x13       0
 LI bnd       x14       0
 LI bnd       x15       0
 LI bnd       x16       0
 LI bnd       x17       0
 LI bnd       x18       0
 LI bnd       x19       0
 LI bnd       x20       0
 LI bnd       x21       0
 LI bnd       x22       0
 LI bnd       x23       0
 LI bnd       x24       0
 LI bnd       x25       0
 LI bnd       x26       0
 LI bnd       x27       0
 LI bnd       x28       0
 LI bnd       x29       0
 LI bnd       x30       0
 LI bnd       x31       0
 LI bnd       x32       0
 LI bnd       x33       0
 LI bnd       x34       0
 LI bnd       x35       0
 LI bnd       x36       0
 LI bnd       x37       0
 LI bnd       x38       0
 LI bnd       x39       0
 LI bnd       x40       0
 LI bnd       x41       0
 LI bnd       x42       0
 LI bnd       x43       0
 LI bnd       x44       0
 LI bnd       x45       0
 LI bnd       x46       0
 LI bnd       x47       0
 LI bnd       x48       0
 LI bnd       x49       0
 LI bnd       x50       0
ENDATA
